p cnf 109 228
-2 -3 -4 0
-1 -3 -4 0
-1 -2 -4 0
-1 -2 -3 0
-6 -7 -8 0
-5 -7 -8 0
-5 -6 -8 0
-5 -6 -7 0
-10 -11 -12 0
-9 -11 -12 0
-9 -10 -12 0
-9 -10 -11 0
-14 -15 -16 0
-13 -15 -16 0
-13 -14 -16 0
-13 -14 -15 0
-18 -19 -20 0
-17 -19 -20 0
-17 -18 -20 0
-17 -18 -19 0
-22 -23 -24 0
-21 -23 -24 0
-21 -22 -24 0
-21 -22 -23 0
-26 -27 -28 0
-25 -27 -28 0
-25 -26 -28 0
-25 -26 -27 0
-30 -31 -32 0
-29 -31 -32 0
-29 -30 -32 0
-29 -30 -31 0
-34 -35 -36 0
-33 -35 -36 0
-33 -34 -36 0
-33 -34 -35 0
-38 -39 -40 0
-37 -39 -40 0
-37 -38 -40 0
-37 -38 -39 0
-42 -43 -44 0
-41 -43 -44 0
-41 -42 -44 0
-41 -42 -43 0
-46 -47 -48 0
-45 -47 -48 0
-45 -46 -48 0
-45 -46 -47 0
-50 -51 -52 0
-49 -51 -52 0
-49 -50 -52 0
-49 -50 -51 0
-54 -55 -56 0
-53 -55 -56 0
-53 -54 -56 0
-53 -54 -55 0
-58 -59 -60 0
-57 -59 -60 0
-57 -58 -60 0
-57 -58 -59 0
-62 -63 -64 0
-61 -63 -64 0
-61 -62 -64 0
-61 -62 -63 0
-66 -67 -68 0
-65 -67 -68 0
-65 -66 -68 0
-65 -66 -67 0
-70 -71 -72 0
-69 -71 -72 0
-69 -70 -72 0
-69 -70 -71 0
-74 -75 -76 0
-73 -75 -76 0
-73 -74 -76 0
-73 -74 -75 0
-78 -79 -80 0
-77 -79 -80 0
-77 -78 -80 0
-77 -78 -79 0
-82 -83 -84 0
-81 -83 -84 0
-81 -82 -84 0
-81 -82 -83 0
-86 -87 -88 0
-85 -87 -88 0
-85 -86 -88 0
-85 -86 -87 0
-90 -91 -92 0
-89 -91 -92 0
-89 -90 -92 0
-89 -90 -91 0
-94 -95 -96 0
-93 -95 -96 0
-93 -94 -96 0
-93 -94 -95 0
-98 -99 -100 0
-97 -99 -100 0
-97 -98 -100 0
-97 -98 -99 0
-102 -103 -104 0
-101 -103 -104 0
-101 -102 -104 0
-101 -102 -103 0
-105 -106 -107 0
-105 -106 -108 0
-105 -106 -109 0
-105 -107 -108 0
-105 -107 -109 0
-105 -108 -109 0
-106 -107 -108 0
-106 -107 -109 0
-106 -108 -109 0
-107 -108 -109 0
55 13 85 0
24 13 85 0
24 55 85 0
24 55 13 0
99 1 14 0
93 1 14 0
93 99 14 0
93 99 1 0
79 84 34 0
68 84 34 0
68 79 34 0
68 79 84 0
69 60 2 0
10 60 2 0
10 69 2 0
10 69 60 0
98 47 62 0
90 47 62 0
90 98 62 0
90 98 47 0
67 95 86 0
48 95 86 0
48 67 86 0
48 67 95 0
40 4 44 0
6 4 44 0
6 40 44 0
6 40 4 0
26 32 97 0
53 32 97 0
53 26 97 0
53 26 32 0
46 39 17 0
76 39 17 0
76 46 17 0
76 46 39 0
38 59 15 0
66 59 15 0
66 38 15 0
66 38 59 0
87 92 28 0
109 92 28 0
109 87 28 0
109 87 92 0
7 100 22 0
77 100 22 0
77 7 22 0
77 7 100 0
35 94 102 0
91 94 102 0
91 35 102 0
91 35 94 0
103 31 45 0
72 31 45 0
72 103 45 0
72 103 31 0
18 58 104 0
54 58 104 0
54 18 104 0
54 18 58 0
101 65 23 0
49 65 23 0
49 101 23 0
49 101 65 0
82 64 74 0
88 64 74 0
88 82 74 0
88 82 64 0
11 29 105 0
78 29 105 0
78 11 105 0
78 11 29 0
25 63 12 0
37 63 12 0
37 25 12 0
37 25 63 0
36 70 41 0
106 70 41 0
106 36 41 0
106 36 70 0
20 96 108 0
21 96 108 0
21 20 108 0
21 20 96 0
50 19 5 0
9 19 5 0
9 50 5 0
9 50 19 0
8 33 75 0
30 33 75 0
30 8 75 0
30 8 33 0
89 43 56 0
81 43 56 0
81 89 56 0
81 89 43 0
3 71 27 0
83 71 27 0
83 3 27 0
83 3 71 0
73 57 107 0
52 57 107 0
52 73 107 0
52 73 57 0
61 51 80 0
61 51 16 0
61 51 42 0
61 80 16 0
61 80 42 0
61 16 42 0
51 80 16 0
51 80 42 0
51 16 42 0
80 16 42 0
